p cnf 176 594
c p weight -69 1 0
c p weight 69 -1 0
c p weight 73 6.12323399573676603586882014729198302312846062338790031898128063403419218957424163818359375E-17 0
c p weight -73 1 0
c p weight 74 1 0
c p weight -74 1 0
c p weight -71 1 0
c p weight 71 -1 0
c p weight -75 1 0
c p weight 75 -1 0
c p weight -77 1 0
c p weight 77 -1 0
c p weight -80 1 0
c p weight 80 -1 0
c p weight -83 1 0
c p weight 83 -1 0
c p weight -86 1 0
c p weight 86 -1 0
c p weight -89 1 0
c p weight 89 -1 0
c p weight -92 1 0
c p weight 92 -1 0
c p weight -95 1 0
c p weight 95 -1 0
c p weight -98 1 0
c p weight 98 -1 0
c p weight -101 1 0
c p weight 101 -1 0
c p weight -104 1 0
c p weight 104 -1 0
c p weight -107 1 0
c p weight 107 -1 0
c p weight -110 1 0
c p weight 110 -1 0
c p weight -113 1 0
c p weight 113 -1 0
c p weight -116 1 0
c p weight 116 -1 0
c p weight -119 1 0
c p weight 119 -1 0
c p weight -122 1 0
c p weight 122 -1 0
c p weight -125 1 0
c p weight 125 -1 0
c p weight -128 1 0
c p weight 128 -1 0
c p weight -131 1 0
c p weight 131 -1 0
c p weight -134 1 0
c p weight 134 -1 0
c p weight -137 1 0
c p weight 137 -1 0
c p weight -140 1 0
c p weight 140 -1 0
c p weight -143 1 0
c p weight 143 -1 0
c p weight -146 1 0
c p weight 146 -1 0
c p weight -149 1 0
c p weight 149 -1 0
c p weight -152 1 0
c p weight 152 -1 0
c p weight -155 1 0
c p weight 155 -1 0
c p weight -158 1 0
c p weight 158 -1 0
c p weight -161 1 0
c p weight 161 -1 0
c p weight -164 1 0
c p weight 164 -1 0
c p weight -167 1 0
c p weight 167 -1 0
c p weight -170 1 0
c p weight 170 -1 0
c p weight -173 1 0
c p weight 173 -1 0
c p weight 176 0.5 0
c p weight -176 1 0
176 0
-67 0
-65 0
-63 0
-61 0
-59 0
-57 0
-55 0
-53 0
-51 0
-49 0
-47 0
-45 0
-43 0
-41 0
-39 0
-37 0
-35 0
-33 0
-31 0
-29 0
-27 0
-25 0
-23 0
-21 0
-19 0
-17 0
-15 0
-13 0
-11 0
-9 0
-7 0
-5 0
-3 0
-1 0
-69 67 0
-69 68 0
69 -67 -68 0
70 67 -68 0
70 -67 68 0
-70 67 68 0
-70 -67 -68 0
-71 72 0
-71 70 0
-71 -67 0
71 -72 67 -70 0
72 -67 70 0
-72 67 70 0
-73 70 0
72 -73 -67 0
-72 -73 67 0
72 73 67 -70 0
-72 73 -67 -70 0
-74 70 0
72 -74 67 0
-72 -74 -67 0
72 74 -67 -70 0
-72 74 67 -70 0
-75 72 0
-75 70 0
75 -72 -70 0
76 72 -70 0
76 -72 70 0
-76 72 70 0
-76 -72 -70 0
-77 72 0
-77 66 0
-77 65 -76 0
-77 -65 76 0
77 -72 65 76 -66 0
77 -72 -65 -76 -66 0
79 72 -65 0
79 -72 65 0
-79 72 65 0
-79 -72 -65 0
78 76 -66 0
78 -76 66 0
-78 76 66 0
-78 -76 -66 0
-80 79 0
-80 64 0
-80 63 -66 0
-80 -63 66 0
80 -79 63 66 -64 0
80 -79 -63 -66 -64 0
82 79 -63 0
82 -79 63 0
-82 79 63 0
-82 -79 -63 0
81 66 -64 0
81 -66 64 0
-81 66 64 0
-81 -66 -64 0
-83 82 0
-83 62 0
-83 61 -64 0
-83 -61 64 0
83 -82 61 64 -62 0
83 -82 -61 -64 -62 0
85 82 -61 0
85 -82 61 0
-85 82 61 0
-85 -82 -61 0
84 64 -62 0
84 -64 62 0
-84 64 62 0
-84 -64 -62 0
-86 85 0
-86 60 0
-86 59 -62 0
-86 -59 62 0
86 -85 59 62 -60 0
86 -85 -59 -62 -60 0
88 85 -59 0
88 -85 59 0
-88 85 59 0
-88 -85 -59 0
87 62 -60 0
87 -62 60 0
-87 62 60 0
-87 -62 -60 0
-89 88 0
-89 58 0
-89 57 -60 0
-89 -57 60 0
89 -88 57 60 -58 0
89 -88 -57 -60 -58 0
91 88 -57 0
91 -88 57 0
-91 88 57 0
-91 -88 -57 0
90 60 -58 0
90 -60 58 0
-90 60 58 0
-90 -60 -58 0
-92 91 0
-92 56 0
-92 55 -58 0
-92 -55 58 0
92 -91 55 58 -56 0
92 -91 -55 -58 -56 0
94 91 -55 0
94 -91 55 0
-94 91 55 0
-94 -91 -55 0
93 58 -56 0
93 -58 56 0
-93 58 56 0
-93 -58 -56 0
-95 94 0
-95 54 0
-95 53 -56 0
-95 -53 56 0
95 -94 53 56 -54 0
95 -94 -53 -56 -54 0
97 94 -53 0
97 -94 53 0
-97 94 53 0
-97 -94 -53 0
96 56 -54 0
96 -56 54 0
-96 56 54 0
-96 -56 -54 0
-98 97 0
-98 52 0
-98 51 -54 0
-98 -51 54 0
98 -97 51 54 -52 0
98 -97 -51 -54 -52 0
100 97 -51 0
100 -97 51 0
-100 97 51 0
-100 -97 -51 0
99 54 -52 0
99 -54 52 0
-99 54 52 0
-99 -54 -52 0
-101 100 0
-101 50 0
-101 49 -52 0
-101 -49 52 0
101 -100 49 52 -50 0
101 -100 -49 -52 -50 0
103 100 -49 0
103 -100 49 0
-103 100 49 0
-103 -100 -49 0
102 52 -50 0
102 -52 50 0
-102 52 50 0
-102 -52 -50 0
-104 103 0
-104 48 0
-104 47 -50 0
-104 -47 50 0
104 -103 47 50 -48 0
104 -103 -47 -50 -48 0
106 103 -47 0
106 -103 47 0
-106 103 47 0
-106 -103 -47 0
105 50 -48 0
105 -50 48 0
-105 50 48 0
-105 -50 -48 0
-107 106 0
-107 46 0
-107 45 -48 0
-107 -45 48 0
107 -106 45 48 -46 0
107 -106 -45 -48 -46 0
109 106 -45 0
109 -106 45 0
-109 106 45 0
-109 -106 -45 0
108 48 -46 0
108 -48 46 0
-108 48 46 0
-108 -48 -46 0
-110 109 0
-110 44 0
-110 43 -46 0
-110 -43 46 0
110 -109 43 46 -44 0
110 -109 -43 -46 -44 0
112 109 -43 0
112 -109 43 0
-112 109 43 0
-112 -109 -43 0
111 46 -44 0
111 -46 44 0
-111 46 44 0
-111 -46 -44 0
-113 112 0
-113 42 0
-113 41 -44 0
-113 -41 44 0
113 -112 41 44 -42 0
113 -112 -41 -44 -42 0
115 112 -41 0
115 -112 41 0
-115 112 41 0
-115 -112 -41 0
114 44 -42 0
114 -44 42 0
-114 44 42 0
-114 -44 -42 0
-116 115 0
-116 40 0
-116 39 -42 0
-116 -39 42 0
116 -115 39 42 -40 0
116 -115 -39 -42 -40 0
118 115 -39 0
118 -115 39 0
-118 115 39 0
-118 -115 -39 0
117 42 -40 0
117 -42 40 0
-117 42 40 0
-117 -42 -40 0
-119 118 0
-119 38 0
-119 37 -40 0
-119 -37 40 0
119 -118 37 40 -38 0
119 -118 -37 -40 -38 0
121 118 -37 0
121 -118 37 0
-121 118 37 0
-121 -118 -37 0
120 40 -38 0
120 -40 38 0
-120 40 38 0
-120 -40 -38 0
-122 121 0
-122 36 0
-122 35 -38 0
-122 -35 38 0
122 -121 35 38 -36 0
122 -121 -35 -38 -36 0
124 121 -35 0
124 -121 35 0
-124 121 35 0
-124 -121 -35 0
123 38 -36 0
123 -38 36 0
-123 38 36 0
-123 -38 -36 0
-125 124 0
-125 34 0
-125 33 -36 0
-125 -33 36 0
125 -124 33 36 -34 0
125 -124 -33 -36 -34 0
127 124 -33 0
127 -124 33 0
-127 124 33 0
-127 -124 -33 0
126 36 -34 0
126 -36 34 0
-126 36 34 0
-126 -36 -34 0
-128 127 0
-128 32 0
-128 31 -34 0
-128 -31 34 0
128 -127 31 34 -32 0
128 -127 -31 -34 -32 0
130 127 -31 0
130 -127 31 0
-130 127 31 0
-130 -127 -31 0
129 34 -32 0
129 -34 32 0
-129 34 32 0
-129 -34 -32 0
-131 130 0
-131 30 0
-131 29 -32 0
-131 -29 32 0
131 -130 29 32 -30 0
131 -130 -29 -32 -30 0
133 130 -29 0
133 -130 29 0
-133 130 29 0
-133 -130 -29 0
132 32 -30 0
132 -32 30 0
-132 32 30 0
-132 -32 -30 0
-134 133 0
-134 28 0
-134 27 -30 0
-134 -27 30 0
134 -133 27 30 -28 0
134 -133 -27 -30 -28 0
136 133 -27 0
136 -133 27 0
-136 133 27 0
-136 -133 -27 0
135 30 -28 0
135 -30 28 0
-135 30 28 0
-135 -30 -28 0
-137 136 0
-137 26 0
-137 25 -28 0
-137 -25 28 0
137 -136 25 28 -26 0
137 -136 -25 -28 -26 0
139 136 -25 0
139 -136 25 0
-139 136 25 0
-139 -136 -25 0
138 28 -26 0
138 -28 26 0
-138 28 26 0
-138 -28 -26 0
-140 139 0
-140 24 0
-140 23 -26 0
-140 -23 26 0
140 -139 23 26 -24 0
140 -139 -23 -26 -24 0
142 139 -23 0
142 -139 23 0
-142 139 23 0
-142 -139 -23 0
141 26 -24 0
141 -26 24 0
-141 26 24 0
-141 -26 -24 0
-143 142 0
-143 22 0
-143 21 -24 0
-143 -21 24 0
143 -142 21 24 -22 0
143 -142 -21 -24 -22 0
145 142 -21 0
145 -142 21 0
-145 142 21 0
-145 -142 -21 0
144 24 -22 0
144 -24 22 0
-144 24 22 0
-144 -24 -22 0
-146 145 0
-146 20 0
-146 19 -22 0
-146 -19 22 0
146 -145 19 22 -20 0
146 -145 -19 -22 -20 0
148 145 -19 0
148 -145 19 0
-148 145 19 0
-148 -145 -19 0
147 22 -20 0
147 -22 20 0
-147 22 20 0
-147 -22 -20 0
-149 148 0
-149 18 0
-149 17 -20 0
-149 -17 20 0
149 -148 17 20 -18 0
149 -148 -17 -20 -18 0
151 148 -17 0
151 -148 17 0
-151 148 17 0
-151 -148 -17 0
150 20 -18 0
150 -20 18 0
-150 20 18 0
-150 -20 -18 0
-152 151 0
-152 16 0
-152 15 -18 0
-152 -15 18 0
152 -151 15 18 -16 0
152 -151 -15 -18 -16 0
154 151 -15 0
154 -151 15 0
-154 151 15 0
-154 -151 -15 0
153 18 -16 0
153 -18 16 0
-153 18 16 0
-153 -18 -16 0
-155 154 0
-155 14 0
-155 13 -16 0
-155 -13 16 0
155 -154 13 16 -14 0
155 -154 -13 -16 -14 0
157 154 -13 0
157 -154 13 0
-157 154 13 0
-157 -154 -13 0
156 16 -14 0
156 -16 14 0
-156 16 14 0
-156 -16 -14 0
-158 157 0
-158 12 0
-158 11 -14 0
-158 -11 14 0
158 -157 11 14 -12 0
158 -157 -11 -14 -12 0
160 157 -11 0
160 -157 11 0
-160 157 11 0
-160 -157 -11 0
159 14 -12 0
159 -14 12 0
-159 14 12 0
-159 -14 -12 0
-161 160 0
-161 10 0
-161 9 -12 0
-161 -9 12 0
161 -160 9 12 -10 0
161 -160 -9 -12 -10 0
163 160 -9 0
163 -160 9 0
-163 160 9 0
-163 -160 -9 0
162 12 -10 0
162 -12 10 0
-162 12 10 0
-162 -12 -10 0
-164 163 0
-164 8 0
-164 7 -10 0
-164 -7 10 0
164 -163 7 10 -8 0
164 -163 -7 -10 -8 0
166 163 -7 0
166 -163 7 0
-166 163 7 0
-166 -163 -7 0
165 10 -8 0
165 -10 8 0
-165 10 8 0
-165 -10 -8 0
-167 166 0
-167 6 0
-167 5 -8 0
-167 -5 8 0
167 -166 5 8 -6 0
167 -166 -5 -8 -6 0
169 166 -5 0
169 -166 5 0
-169 166 5 0
-169 -166 -5 0
168 8 -6 0
168 -8 6 0
-168 8 6 0
-168 -8 -6 0
-170 169 0
-170 4 0
-170 3 -6 0
-170 -3 6 0
170 -169 3 6 -4 0
170 -169 -3 -6 -4 0
172 169 -3 0
172 -169 3 0
-172 169 3 0
-172 -169 -3 0
171 6 -4 0
171 -6 4 0
-171 6 4 0
-171 -6 -4 0
-173 172 0
-173 2 0
-173 1 -4 0
-173 -1 4 0
173 -172 1 4 -2 0
173 -172 -1 -4 -2 0
175 172 -1 0
175 -172 1 0
-175 172 1 0
-175 -172 -1 0
174 4 -2 0
174 -4 2 0
-174 4 2 0
-174 -4 -2 0
-175 0
-172 0
-174 0
-169 0
-171 0
-166 0
-168 0
-163 0
-165 0
-160 0
-162 0
-157 0
-159 0
-154 0
-156 0
-151 0
-153 0
-148 0
-150 0
-145 0
-147 0
-142 0
-144 0
-139 0
-141 0
-136 0
-138 0
-133 0
-135 0
-130 0
-132 0
-127 0
-129 0
-124 0
-126 0
-121 0
-123 0
-118 0
-120 0
-115 0
-117 0
-112 0
-114 0
-109 0
-111 0
-106 0
-108 0
-103 0
-105 0
-100 0
-102 0
-97 0
-99 0
-94 0
-96 0
-91 0
-93 0
-88 0
-90 0
-85 0
-87 0
-82 0
-84 0
-79 0
-81 0
-72 0
-78 0
